
 102   30
  10   10   10   10   10   10   10   10   10   10   10   10   10   10   10   10   10   10   10   10   10   10   10   10   10   10   10   10   10   10

   0   0   0   0   0   0   0   0   0   0   0   0   0   0   0   0   0   0   0   0   0   0   0   0   0   0   0   0   0   0   0  32 2 3 4 5 6 7 8 9 10 11 12 13 15 16 17 18 19 20 21 22 23 24 25 26 28 32 33 34 35 37 43 54 
   8   0   0   0   0   0   0   0   1   0   0   1   1   0   0   0   0   0   0   0   0   0   0   1   0   0   0   0   0   0   0  14 70 61 59 58 53 49 40 39 36 31 30 29 27 14 
   7   0   0   0   3   0   0   0   0   0   0   0   0   0   2   0   0   0   1   0   1   0   0   0   0   0   1   0   0   0   0  18 78 77 71 70 67 65 63 62 61 55 53 48 47 44 40 36 29 27 
   7   0   0   0   2   0   0   0   0   0   0   0   0   1   0   0   0   0   0   0   4   0   0   0   0   0   0   0   2   0   0  18 101 77 76 75 71 70 67 65 64 63 61 58 56 53 46 44 40 27 
   6   0   1   0   0   0   1   0   0   0   0   0   0   0   0   0   1   0   0   2   0   0   0   0   0   0   0   3   7   6   0  17 99 77 71 67 65 64 62 56 55 51 49 45 44 41 40 36 27 
   4   0   0   1   0   3   0   0   0   1   0   0   0   0   0   0   0   0   0   0   0   0   0   0   0   0   0   0   0   0   0  15 101 78 77 63 62 61 56 53 45 44 42 40 39 36 27 
   6   1   0   0   0   0   0   0   0   0   0   0   0   0   0   0  10   0   4   0   6   0   0   0   0   1   0   0   0   0   0  16 100 75 70 67 65 63 62 61 58 56 53 46 40 39 36 27 
   3   0   0   0   0   0   0   0   0   0   0   0   0   0   0   0   0   0   0   0   7   1   1   0   0   0   0   0   0   0   0  15 100 99 97 78 75 71 67 65 63 61 41 40 38 36 27 
   8   0   0   0   0   0   0   1   8   0   0   0   0   0   0   0   0   0   0   3   0   6   0   0   0   0   0   0   0   0   0  12 100 99 97 96 78 77 71 70 67 62 42 27 
  10   0   0   0   0   0   0   4   0   0   0   8   0   0   0   1   0   0   4   0   0   0   7   0   0   0   0   0   0   0   0  11 77 73 70 64 63 62 49 48 47 44 42 
   6   0   5   0   0   0   0   7   0   7   0   0   0   0   0   0   0   0   0   0   0   0   0   0   0   0   0   0   0   0   0  17 100 97 95 94 76 75 70 69 66 64 63 62 60 56 52 50 48 
   8   0   0   6   0   0   0   0   0   0   0   0   8   0   0   0   0   0   0   0   8   0   0   0   0   6   0   0   0   0   0  19 99 98 97 96 92 91 77 76 75 74 71 70 69 67 65 62 61 60 50 
   1   0   0   0   0   0   0   7   0   0   6   0   0   0   0   0   0   0   0   0   0   0   6   0   0   0   0   0   0   0   1  15 99 96 95 77 76 71 70 67 65 62 56 52 51 50 46 
  10   8   0   4   0   0   0   0   0   0   0   0  10   0   0   0   0   0   0   0   0   4   0   0   0   0   0   0   0   5   2  14 98 96 77 76 74 71 69 66 63 62 60 52 50 42 
   8   0   0   5   0   0   0   0   0   0   0   0   0   0   0   4   0   0   0   0  10   0   0   0   0   0   0   0   0   0   2  11 100 77 75 70 67 65 61 56 49 48 46 
   5   0   0   0   2   0   0   0   0   0   0   0  10   0   0   0   0   0   0   0   0   0   0   0   0   0   0   4   9   0   0   9 99 97 96 78 70 62 56 40 27 
   3   0   4   0   0   0   0   0   0   0   0   7   0   0   0   0   0   0   0   0   0   0   0   0   0   0   0   0   0   0   0  10 95 91 69 65 64 60 53 51 45 40 
  10   0   9   0   0   0   0   4   7   0   0   0   0   0   0   0   7   0   0   0   7   0   0   0   0   0   0   0   0   0   0   9 95 76 75 67 56 53 46 44 40 
   1   0   0   0   0   0   0   0   0   0   0   0   0   0   0   0   5   0   0   4   0   0   0   0   0   0   7   0   0   4   0  13 98 96 95 91 76 74 72 70 66 65 60 52 49 
   6   5   0   0   0   0   0   8   4   0   0   2   0   0   0   0   0   0   0   0   0   0   0   0   0   0   0   0   7   0   0  10 100 99 90 77 74 71 66 61 42 41 
   6   4   0   0   0   0   6   0   0   3   0   0   3   0   0   0   0   0   0   0   0   6   0   0   0   8   0   0   0   0   0  15 100 97 93 92 91 83 78 77 76 74 70 69 64 60 53 
   5   0   0   0   0   0   0   0   5   0   0   0   0   0   0   0   0   0   0   4   0   0   0   0   0   0   0   0   3   0   0  12 101 98 96 91 88 75 74 67 65 57 50 49 
   6   5   0   8   0   0   9   0   0   5   0   0   0   0   0   0   5   1   0   0   0   0   0  10   0   0   6   0   0   0   0   8 101 98 97 74 70 60 41 40 
   1   0   0   0   0   0   8   0   0   5   8   0   0   0   0   0   0   9   0   0   0   0   0   0   2   0   0   0   0   0   0  18 101 100 97 96 93 91 90 88 81 77 76 75 74 73 69 68 64 63 
   5   0   0   0   0   0   0   0   0   0   4   0   0   0   0   0   0   0   0   5   0   0   0   0   0   0   0   0   0   0   0  15 99 96 95 94 93 92 90 89 88 74 69 68 63 57 56 
   8   0   7  10   0   0   0   0   0   0   0   0   0   0   0   6   0   0   0   0   9   0   0   0   0   0   0   0   0   0   0  14 100 95 93 91 89 86 77 75 73 72 70 68 63 48 
   6   0   0   0   0   0   0   4   0   0   0   0   0   0   0   0   0   4   0   0   0   0   0   0   0   5   7   0   0   0   0   9 98 95 94 74 69 66 60 52 50 
   6   0   0   0   0   0   0   7   0   0   0   0   0   0   0   0   0   8   0   0   0   0   0   5   0   4   0   0   0   0   0   6 69 64 63 60 53 52 
   3   0   0   0   0   0   0   0   0   0   0   0   0   0   0   0   0   3   0   9   0   0   0   0   0   0   0   0   0   0   0  13 100 93 92 91 88 87 83 82 76 74 72 68 60 
   9   9   0   0   0   0   0   0   0   0   0   0   0  10   0   0   0   0   0  10   5   0   0   0   0   0   0   0   0   0   0  13 95 93 92 90 89 88 87 86 82 75 73 68 56 
   6   0   0   0   8   0   0   0   9   0   0   0   7   0   0   0   0   0   0   0   0   0   0   0   0   0   0   0   5   0   4  13 98 94 93 91 88 86 83 82 76 73 72 68 62 
   2   0   0   7   0   3   0   0   0   8   0   0   0   0   0   0   0   0   7  10   0   0   0   0   0   8   0   0   0   0   0  12 97 96 95 94 92 89 88 82 75 73 62 56 
   7   0   4   6   0   0   0   9   0   0   0   0   0   0   0   0   0   0   0   0   0   0   0   0   0   0   0   0   0   0   0  12 97 95 94 88 87 77 75 74 73 68 67 66 
   2   0   0   6   0   0   0   0   0   0   0   0   0   0   0   0   4   0   0   4   0  10   0   0   0   0   0   0   0   0   0  11 98 92 89 88 86 82 78 74 73 65 56 
   7   0   0   0   0   0   0   4   0   0   0   6   0   0   3   0   4   6   0   0   0   0   0   0   0   0   0   0   0   0   0   8 92 89 88 78 69 68 60 56 
   9   0   0   0   0   0   0   0   0   0   7   0   0   0   0   0   0   0   0   0   0   0   0   0   3   0   0   0   0   0   0  12 96 94 90 88 87 83 81 80 76 72 69 68 
   8   0   0   0   5   0   0   0   0   0   0   0   0   0   5   0   0   0   0   0   0   0   0   0   0   6   0   0   0   0   0  12 99 97 93 91 90 87 85 84 82 73 66 64 
   9   0   0   0   0   0   0   0   0  10   0   0   0   0   0   0   0   0   0   0   0   0   0   9   0   0   0   0   0   0   0  13 93 92 90 89 86 85 83 82 81 74 73 72 70 
   5   0   0   0   0   4   0   0   0   0   0   9   0   0   0   0   0   0   0   0   0   5   0   0   0   0   0   0   0   0   0  10 94 92 91 87 85 83 74 73 69 64 
   2   0   0   0   0   0   0   5   0   0   0   0   0   0   0   0   0   0   0   0   7   0   0   0   0   0   8   0   0   0   0   7 94 93 86 82 73 72 52 
   9   5   0   0   0   0   0   0   0   0   0   0   0   0   0   0   0   0   8   0   0   0   0   0   4   0   7   0   0   0   0   7 95 91 88 83 69 68 50 
  10   0   4   5   0   0   0   0   0   0   2   0   0   0   0   0   0   0   0   0   0   0   0   0   0   0   7   0   0   0   5  11 95 94 91 89 87 86 82 75 72 68 65 
   9   0   0   0  10   0   0   0   0   0   0   9   0   0   0   0   0   0   0   0   0   0   0   0  10   0   8   0   8   5   8  11 95 92 90 86 85 84 82 76 73 72 66 
   2   0   0   0   0  10   0   6  10   0  10   0   6   0   0   0   0   0   0   0   0   0   0   0   0   0   0   0  10   0   0  12 100 97 93 91 89 88 87 85 83 79 74 69 
   7   0   0   0   0   6   8   6   0   6   0   0   0   0   0   0   0   0   0   0   0   0   0   0   0   0   0   0   0   0   0  11 97 92 90 89 86 85 82 75 74 73 72 
   7   0   0   0   0   0   0   9   0   0   0   0   0   0   0  10   0   0   0   0   0   0   0   0   0   0   0   6   0   0   0  12 97 94 92 91 88 86 85 83 82 81 73 72 
   6   0   0   0   0   0   0   0   8   7   5   9   0   0   0   0   8   8   0   0   0   0   0   0   0   0   0   0   2   0   7  12 97 94 89 88 87 85 84 82 81 80 75 72 
  10   0   0   0   0   0   0   0   0   0   0   0   0   0   0   0   0   7   0   0   0   0   0   0   8   0   0   7   0   0   0  11 99 96 90 88 87 83 82 81 80 79 74 
   6   0   0   0   0   0   0   0   0   0   0   0   0   0   0   0   0   0   0   0   3   0   0   0   0   0   0   0   0   7   0   7 97 94 92 90 79 69 68 
   2   0   0   0   0   0   0   8   0   0   3   0   0   9   0   0   0   0   0   0   0   0   0   0   0   0   0   0   0   0   0   8 89 87 86 85 84 81 80 72 
   9   0   7   0   0   0   0   0  10   0   0   0   0   0   0   0   0   0   0   0   0   0   0   0   0   0   0   0   0   0   7   8 98 93 89 84 82 81 79 73 
   7   7   0   0   0   0   0   0   0   0   0   0   0   0   0   0   0   0   0   0   0   0   0   0   0   0   0   6   0   0   0   7 92 90 88 87 81 79 68 
   2   0   0   0   0   0   0   0   0   0   0   0   6   0   0   5   0   0   0   0   0   0   0   0   0   8   0   0   0   0   0   6 96 87 81 79 73 68 
   4   0   0   5   0   0   0   0   0   0   7   4   0   0   0   0   5   9   0   0   0   0   0   0   0   7   0   0   0   0   0   8 98 96 92 88 84 82 81 79 
  10   0   0   0   0   0   0   0   0   0   0   4   0   0   0   6   0   0   0   0   0   0   4   0   0   0   0   0   5   0   0   7 88 86 84 83 81 80 72 
   3   0   0   0   0   0   0   0   0   0   0   0   0   0   0   0   0   0   0   8   0   0   0   0   0   0   0   0   0   0   0   6 91 85 83 81 80 72 
   7   8   0   0   0   0   0   0   0   0   0   0   0   0   0   0   0   0   0   8   0   0   0   0   0   0   0   5   0   0   0   5 86 84 83 82 71 
   4   0   0   4   0   0   0   5   0   0   0   0   0   0   8   0   0   0   7   0   0   0   0   0   0   6   0   0   5   0   9   6 99 87 83 81 80 79 
   3   0   0   0   5   0   0   0   0   0   0   0   0   0   6   0   5   0   0   0   0   0   0   0   0   0   0   0   0   0   0   5 96 83 81 80 79 
   4   0   0   0   0   0   0   0   0   0   7   0   9   0   0   0   0   6   0   0   0   0   0   0   0   5   0   0   8   0   0   4 90 86 81 73 
   3   0   0   6   9   0   0   0   0   8   0   0   0   0   0   9   0   0   8   0   0   0   0  10   6   0   0   1   0   0   0   4 95 94 79 73 
   7   0   0   6   0   0   0   0   0   0   0   0   0   0   0   0   0   0   0   0   2   0   0   0   0   0   6   0   0   0   0   4 90 87 81 80 
   1   0   0   0   0   0   0   0   0   0   0   0   0   0   0   0   0   0   0   0   0   0   0   0   0   0   0   0   0   0   7   4 87 83 82 80 
   3   0   0   0   0   9   0   0   0   0   0   9   0   0   0   0   0   0   0   0   0   0   0   0   3   0   0   0   0   6   0   3 98 80 72 
  10   0   6   0   0   0   0   6   0   0   0   0   0   0   0   7   0   0   0   0   0   0   0   0   0   0   0   0   0   0   0   3 93 83 79 
   2   0   0   7   0   0   0   0   0   0   0   0   6   6   0   0   0   0   0   0   0   0   0   0   0   0   0   0   0   0   0   3 83 81 79 
   3   0   0   0   0   0   0   0   0   0   0   0   0   0   0   0   9   0   0   0   0   0   0   5   0   0   0   0   0  10   0   3 89 82 80 
  10   0   0   0   0   0   0   5   0   0  10   0   0   0   0   0   0   0   0   0   0   0   0   0   0   0   6   0   0   0   5   2 85 84 
   3   0   0   0   0   0   0   6   0   0   0   0   0   0   0   0   0   0   0   0   0   0   0   0   8   0   0   0   0   0   0   2 86 82 
   9   0   0   0   0   0   5   0   0   4   0   0   0   6   0   0   0   0   0   7   6   0   9   0   0   0   0   0   0   0   0   2 88 79 
   8   0   0   6   0   0   0   0   0   0   5   0   0   0   0   0   0   0   0   5   0   0   0   0   0   0   0   7   0   0   0   2 81 80 
   2   0   0   0   0   0   0   0   0   0   0   0   0   0   0   0   0   0   0   0   0   8   0   7   0   0   0   7   0   0   0   1 79 
   2   0   0   6   0   0   0   0   0   8   0   0   0   0   0   0   0   5   0   0   0   0   9   0   6   0   0   0   0   7   0   1 80 
   9   6   0   0   0   0   0   0   0   0   0   0   0   4   0   0   0   0   0   0   0   0   0   0   0   0   7   0   0   0   0   1 84 
   3   0   7   0   7   7   5   0   0   0   0   0   4   0   0   0   7   0   7   0   0   0   0   0   0   0   0   8   0   6   0   1 83 
  10   0   0   0   0   0   0   0   0   0   2   7   0   0   0   2   0   0   0   0   0   0   0   0   0   7   0   0   0   0   9   1 89 
  10   0   0   0   0   0   0   0   0   0   0   0   0   0   0   0   0   0   0   0   7   0   0   4   0   0   0   0   0   0   0   1 82 
  10   6   0   0   5   0   0   0   0   0   0   0   0   0   0   0   8   0   0   0   8   0   0   0   9   0   0   0   5   0   0   1 80 
   7   0   0   0   0   0   0   0   0   0   0   0   0   0   0   6   0   0   0   0   0   0   0   0   0   7   0   0   0   0   0   1 102
  10   0   9   0   0   0   0   0   4   0   7   4   0   0   0   0   0   0   0   0   0   0   3   0   0   0   0   0   0   6   0   1 102
   8   0   0   0   0   0   0   7   0   0   0   0   0   0   0   0   0   0   0   0   0   0   0   0   0   6   0   6   0   0   0   1 102
  10   0   0  10   0   0   0   0   0   0   9   0   0   0   0   0   0   0   0   0   0   0   0   0   7   0   0   0   0   0   0   1 102
  10   0   0   4   0   0   0   7   0   0   0   0   0   0   0   0   0   0   0   0   0   0   0   0   6   0   0   0   0   0   0   1 102
   9   6   0   5   0   0   0   0   0   6   5   6   0   0   0   0   0   0   0   0   0   0   0   0   0   0   0   0   0   0   0   1 102
   4   0   0   0   0   0   0   0   0   8   8   0   0   0   0   0   0   0   5   0   7   0   0   0   0   0   0  10   6   0   0   1 102
   1   9   0   0   0   7   0   0   0   0   0   0   0   0   0   0   0   0   0   0   0   6   0   0   0   0   0   0   0   0   0   1 102
   8   0   0   0   0   0   0   0   0   0   0   0   0   0  10   0   0   0   0   0   0   0   0   2   0   0   0   0   0   0   8   1 102
   2   0   0   0   0   0   0   0   3   0   0   0   0   0   7   0   0   0   0   0   0   0   0   0   0   0   0   0   0   0   0   1 102
   9   0   0   0   0   5   0   0   0   4   3   0   0   0   0  10   0   0   0   0   0   0   0   0   0   0   0   0   0   0   0   1 102
   3   0   9   0   0   0   0   0   4   0   0   0   0   0   0   0   0   0   0   0   0   0   7   0   0   0   0   0   8   0   0   1 102
   4   0   0   6   0   0   0   0   0   0   0   0   0   0   0   0   0   0   0   0   0   6   0   0   0   0   0   6   0   0   0   1 102
   1   0   0   0   0   0   0   0   0   0   0   0   0   0   0   0   0   0   9   0   0   0   0   0   0   0   0   0   0   0   0   1 102
   2   0   6   0   0   0   0   0   0   0   0   0   0   0   0   0   0   0   0   0   0   0   0   0   0   0   0   0   0   4   0   1 102
   7   0   0   0   0   0   0   6   0   0   0   5   0   0   0   0   0   0   0   0   0   0   0   0   0   0   0   0   0   0   0   1 102
   1   0   0   9  10   0   0   0   0   0   0   0   0   0   7   0   0   0   0   5   0   0   0   0   0   0   0   0   0   0   0   1 102
   8   0   0   0   0   0   0   0   0   0   6   0   4   0   0   0   0   0   0   0   0   0   0   7   0   0   0   0   0   9   0   1 102
   3   0   0   0   0   0   0   0   5   6   0   0   0   0   0   0   0   0   0   0   0   0   0   0   0   0   0   8   0   0   0   1 102
   2   5   0   0   0   0   0   7   0   0   0   0   0   0   0   0   0   0   0   0   0   0   0   0   0   0   4   0   0   3  10   1 102
   9   0   0   0   0   0   0   0   0   0   0   0   0   0   0   0   0   0   0   0   0   0   0   0   0   0   0   0   0   0   0   1 102
   2   0   0   0   0   0   0   0   0   0   0   0   4   0   0   0   0   0   0   0   0   8   8   6   0   0   0   0   0   0   0   1 102
   9   0   0   0   0   0   0   0   0   0   0   0   0   0   0   0   0   0   0   0   5   0   0   0   0   0   4   0   0   0   0   1 102
   0   0   0   0   0   0   0   0   0   0   0   0   0   0   0   0   0   0   0   0   0   0   0   0   0   0   0   0   0   0   0   0 
